Version identifier: 12.10.0.0 | 2019-11-26 | 843d4de
CPXPARAM_WorkMem                                 16384
CPXPARAM_MIP_Limits_TreeMemory                   24576
Tried aggregator 2 times.
MIP Presolve modified 45 coefficients.
Aggregator did 30 substitutions.
Reduced MIP has 170 rows, 225 columns, and 870 nonzeros.
Reduced MIP has 225 binaries, 0 generals, 0 SOSs, and 0 indicators.
Presolve time = 0,00 sec. (1,11 ticks)
Found incumbent of value 570,000000 after 0,01 sec. (1,78 ticks)
Probing time = 0,00 sec. (0,30 ticks)
Tried aggregator 1 time.
Detecting symmetries...
MIP Presolve eliminated 25 rows and 0 columns.
MIP Presolve added 50 rows and 0 columns.
Reduced MIP has 195 rows, 225 columns, and 895 nonzeros.
Reduced MIP has 225 binaries, 0 generals, 0 SOSs, and 0 indicators.
Presolve time = 0,00 sec. (1,07 ticks)
Probing time = 0,00 sec. (0,29 ticks)
Clique table members: 585.
MIP emphasis: balance optimality and feasibility.
MIP search method: dynamic search.
Parallel mode: deterministic, using up to 16 threads.
Root relaxation solution time = 0,00 sec. (0,82 ticks)

        Nodes                                         Cuts/
   Node  Left     Objective  IInf  Best Integer    Best Bound    ItCnt     Gap

*     0+    0                          570,0000        0,0000           100,00%
*     0+    0                          324,0000        0,0000           100,00%
*     0+    0                          301,0000        0,0000           100,00%
      0     0      125,2500    98      301,0000      125,2500      104   58,39%
      0     0      125,2500    98      301,0000     Cuts: 126      129   58,39%
      0     0      125,2500    98      301,0000     Cuts: 146      166   58,39%
*     0+    0                          289,0000      125,2500            56,66%
*     0+    0                          282,0000      125,2500            55,59%
      0     0  -1,00000e+75     0      282,0000      125,2500      166   55,59%
      0     2      140,7500    94      282,0000      125,2500      203   55,59%
Elapsed time = 0,06 sec. (23,56 ticks, tree = 0,02 MB, solutions = 5)
*  2806+ 1516                          280,0000      168,6120            39,78%

Performing restart 1

Repeating presolve.
Tried aggregator 2 times.
MIP Presolve eliminated 19 rows and 14 columns.
MIP Presolve added 8 rows and 0 columns.
MIP Presolve modified 16 coefficients.
Aggregator did 4 substitutions.
Reduced MIP has 180 rows, 207 columns, and 799 nonzeros.
Reduced MIP has 207 binaries, 0 generals, 0 SOSs, and 0 indicators.
Presolve time = 0,00 sec. (1,01 ticks)
Tried aggregator 1 time.
Reduced MIP has 180 rows, 207 columns, and 799 nonzeros.
Reduced MIP has 207 binaries, 0 generals, 0 SOSs, and 0 indicators.
Presolve time = 0,00 sec. (0,64 ticks)
Represolve time = 0,01 sec. (3,97 ticks)
   4705     0      150,4802   164      280,0000      Cuts: 35    73643   26,52%
   4705     0      154,4424   164      280,0000      Cuts: 42    73772   26,52%
   4705     0      159,1167   164      280,0000      Cuts: 83    73892   26,52%
   4705     0      160,1598   164      280,0000      Cuts: 42    73971   26,52%
   4705     2      160,1598   206      280,0000      205,7579    73971   26,52%
   6030   849      262,1485   123      280,0000      205,7579   107925   26,52%
   8115  2431      266,9581   106      280,0000      205,7579   189766   26,52%
  10644  4517      270,8061   107      280,0000      205,7579   265295   26,52%

Performing restart 2

Repeating presolve.
Tried aggregator 1 time.
Reduced MIP has 180 rows, 207 columns, and 799 nonzeros.
Reduced MIP has 207 binaries, 0 generals, 0 SOSs, and 0 indicators.
Presolve time = 0,00 sec. (0,45 ticks)
Tried aggregator 1 time.
Reduced MIP has 180 rows, 207 columns, and 799 nonzeros.
Reduced MIP has 207 binaries, 0 generals, 0 SOSs, and 0 indicators.
Presolve time = 0,00 sec. (0,64 ticks)
Represolve time = 0,02 sec. (12,65 ticks)
  10682     0      170,1727   207      280,0000      Cuts: 25   278266   26,52%
  10682     0      170,4812   207      280,0000      Cuts: 31   278314   26,52%
  10682     0      170,6415   207      280,0000      Cuts: 29   278375   26,52%
  10682     0      170,9132   207      280,0000      Cuts: 36   278465   26,52%
* 10682+    0                          279,0000      205,7579            26,25%
  10682     0      171,2150   207      279,0000      Cuts: 53   278548   26,25%
  10682     0      172,5098   207      279,0000      Cuts: 43   278692   26,25%
  10682     0      174,6767   207      279,0000      Cuts: 86   278831   26,25%
  10682     2      174,6767   207      279,0000      205,7579   278831   26,25%
  15341  2977        cutoff            279,0000      231,5040   399802   17,02%
  19688  4679      274,1829    70      279,0000      245,2060   547483   12,11%
  24256  4955      276,0905    91      279,0000      257,3498   696406    7,76%
* 24433+ 4917                          277,0000      257,8365             6,92%

Clique cuts applied:  22
Cover cuts applied:  274
Mixed integer rounding cuts applied:  63
Zero-half cuts applied:  35
Gomory fractional cuts applied:  32

Root node processing (before b&c):
  Real time             =    0,06 sec. (23,47 ticks)
Parallel b&c, 16 threads:
  Real time             =    3,37 sec. (2276,31 ticks)
  Sync time (average)   =    1,01 sec.
  Wait time (average)   =    0,01 sec.
                          ------------
Total (root+branch&cut) =    3,43 sec. (2299,78 ticks)
